20	5
0	8	7	5	3	6	2	8	4	1
1	2	11	18
2	1	16
3	2	17	13
4	2	9	12
5	2	14	20
6	1	18
7	3	12	10	16
8	2	20	17
9	4	18	13	19	11
10	2	17	9
11	1	15
12	1	21
13	1	21
14	1	21
15	1	21
16	1	21
17	1	21
18	1	21
19	1	21
20	2	21	10
21	0
0	0	0	0	0	0	0
1	2	1	2	5	3	5
2	10	0	5	3	1	0
3	2	0	0	4	0	0
4	8	2	3	5	0	0
5	4	0	5	0	1	2
6	7	0	3	2	5	0
7	10	0	0	0	4	0
8	9	1	2	3	0	0
9	7	2	5	4	0	3
10	1	0	4	3	4	3
11	2	0	0	0	3	0
12	3	0	0	0	4	0
13	6	0	0	4	0	1
14	1	0	0	5	1	3
15	5	0	0	3	0	0
16	9	3	2	1	0	0
17	5	0	0	0	0	4
18	5	0	5	2	3	5
19	5	5	0	0	3	0
20	1	0	0	0	5	5
21	0	0	0	0	0	0
5	9	8	7	6
